
%FILE DATA:	Soccer Computational Problem for MiniZinc Models	%
%AUTHOR:	Jack Wall	%
%CONTACT:  	116397063@umail.ucc.ie			%
%LAST UPDATE:	02/14/2020, 08:50:15						%
%DESCRIPTION: 	32 games played with 24 games left				%


n=8; %number of teams

%Games to play
games=[|2,4|5,3|4,3|7,4|6,2|1,2|6,3|6,5|3,4|4,6|4,8|6,4|8,2|8,3|5,1|3,8|2,7|3,7|6,7|3,6|5,7|4,7|2,5|5,4|];

%Initial points
iPoints=[19,8,8,9,8,7,13,15];

%POSITION CONSTRAINTS
% [|teamID, operator, position|...]
% operators index:
%  1 for =  operator
%  2 for >  operator
%  3 for >= operator
%  4 for <  operator
%  5 for <= operator
positionConstraints=[|1,1,1|7,1,2|];